Name: Ing1112-2
Courses: 140
Rooms: 23
Days: 5
Periods_per_day: 5
Curricula: 101
Min_Max_Daily_Lectures: 2 3
UnavailabilityConstraints: 821
RoomConstraints: 280

COURSES:
c1597 t000 3 3 140 0
c1602 t001 7 1 70 1
c1604 t002 4 2 140 1
c1625 t003 7 1 70 1
c1642 t004 9 1 70 0
c1711 t005 6 2 30 1
c1713 t006 6 1 30 1
c1720 t007 2 2 60 0
c3229 t008 2 2 30 0
c1846 t009 2 2 20 0
c3172 t010 2 2 160 0
c3174 t011 2 2 70 0
c3175 t012 2 2 160 0
c3176 t013 2 2 90 0
c3180 t014 2 2 70 0
c3186 t015 3 3 160 0
c3187 t016 2 2 120 0
c3194 t017 4 3 140 0
c3196 t018 2 2 90 0
c3197 t019 2 2 70 0
c3198 t020 1 1 160 0
c3207 t021 3 2 50 1
c3210 t022 2 2 50 0
c3211 t023 2 2 50 0
c3214 t024 2 2 53 0
c3215 t025 3 3 50 0
c3217 t026 3 3 50 0
c3218 t027 2 2 80 0
c3220 t028 4 3 85 0
c3225 t029 2 2 229 0
c3226 t030 2 2 176 0
c3227 t031 2 2 20 0
c3230 t032 2 2 215 0
c3231 t033 2 2 125 0
c3233 t034 4 3 229 0
c3240 t035 2 2 135 0
c3242 t036 2 2 120 0
c3243 t037 2 2 110 0
c3249 t038 2 2 90 0
c3251 t039 2 2 100 0
c3255 t040 4 4 100 0
c3256 t041 2 2 100 0
c3262 t042 2 2 90 0
c3263 t043 2 2 90 0
c3290 t044 4 3 120 0
c3291 t045 2 2 60 0
c3295 t046 2 2 95 1
c3299 t047 2 2 15 0
c3300 t047 2 2 15 0
c3301 t020 2 2 80 0
c3303 t048 2 2 15 0
c3309 t049 2 2 15 0
c3310 t042 2 2 15 0
c3312 t050 2 2 15 0
c3313 t051 2 2 95 0
c3315 t043 2 2 15 0
c3316 t020 2 2 95 0
c3317 t052 2 2 110 0
c3319 t052 2 2 15 0
c3321 t053 3 2 80 1
c3324 t016 2 2 80 0
c3330 t054 3 2 65 1
c3332 t027 2 2 36 0
c3333 t016 2 2 20 0
c3334 t045 2 2 60 0
c3336 t055 2 2 80 0
c3339 t038 2 2 92 0
c3340 t021 2 2 16 0
c3342 t056 2 2 16 0
c3343 t057 4 3 46 0
c3345 t024 2 2 48 0
c3347 t058 2 1 40 1
c3348 t059 2 2 23 0
c3351 t060 2 2 32 0
c3352 t060 2 2 8 0
c3354 t021 2 1 40 1
c3362 t061 4 3 56 0
c3360 t062 2 1 32 1
c3364 t059 2 2 24 0
c3369 t063 4 3 96 0
c3370 t064 2 1 4 0
c3373 t065 2 2 6 0
c3374 t066 2 2 1 0
c3375 t066 2 2 12 0
c3384 t067 2 2 4 0
c3391 t068 2 1 4 1
c3394 t069 2 2 4 0
c3395 t069 2 2 4 0
c3398 t070 2 2 80 0
c3402 t071 2 2 64 0
c3404 t072 2 2 64 0
c3405 t073 2 2 64 0
c3407 t074 2 2 48 0
c3409 t075 2 2 48 0
c3410 t076 2 2 48 0
c3413 t077 2 2 80 0
c3416 t078 2 2 48 0
c3418 t079 2 2 10 0
c3419 t042 2 2 105 0
c3420 t080 2 2 5 0
c3422 t081 2 2 38 0
c3423 t030 2 2 5 0
c3424 t039 2 2 5 0
c3428 t082 1 1 5 0
c3434 t083 9 1 30 1
c3436 t084 9 2 30 1
c3438 t085 9 2 30 1
c3440 t086 9 1 30 1
c3447 t087 6 1 12 1
c3456 t088 6 2 30 1
c3458 t089 6 1 12 1
c3460 t090 6 1 12 1
c3462 t091 7 1 12 1
c3464 t092 6 1 12 1
c3467 t093 5 4 140 0
c3471 t094 2 2 108 0
c3476 t095 2 2 48 0
c3477 t096 4 3 63 0
c3483 t097 2 2 160 0
c3494 t098 2 1 80 1
c3497 t055 2 2 125 0
c3500 t099 6 1 30 1
c3512 t100 1 1 229 0
c3533 t101 3 3 90 0
c3536 t081 2 2 7 0
c3542 t045 2 2 60 0
c3558 t102 1 1 160 0
c3559 t103 1 1 100 0
c3598 t049 2 2 10 0
c3599 t045 2 2 5 0
c3600 t104 4 3 160 0
c3608 t105 4 3 80 0
c3611 t082 3 2 60 1
c3612 t106 2 2 15 0
c3617 t107 2 2 6 0
c3619 t042 1 1 5 0
c3620 t018 3 3 140 0
c3621 t108 2 1 140 1
c3623 t070 2 2 8 0
c3630 t109 9 1 70 0

ROOMS:
r25 40 0
r36 42 0
r37 42 0
r38 48 0
r34 50 0
r27 65 0
B 216 0
gamma1 90 0
gamma2 90 0
delta1 90 0
delta2 90 0
D 216 0
F 216 0
G 216 0
A 312 0
N 30 0
Er1 70 0
r52 60 0
E 216 0
r50 75 0
r51 78 0
DS1 60 0
DS2 60 0

CURRICULA:
q000 5 c1846 c3422 c3194 c3243 c3186 
q001 2 c3369 c3186 
q002 4 c3471 c1720 c1711 c1713 
q003 4 c3471 c1720 c1711 c3500 
q004 4 c3471 c1720 c3456 c1713 
q005 4 c3471 c1720 c3456 c3500 
q006 1 c3447 
q007 1 c3458 
q008 1 c3460 
q009 1 c3462 
q010 1 c3464 
q011 4 c1597 c1602 c3620 c3621 
q012 4 c1597 c1625 c3620 c3621 
q013 3 c1604 c3467 c1642 
q014 3 c1604 c3467 c3630 
q015 1 c3434 
q016 1 c3436 
q017 1 c3438 
q018 1 c3440 
q019 5 c3172 c3175 c3198 c3558 c3600 
q020 4 c3186 c3187 c3194 c3174 
q021 4 c3186 c3187 c3194 c3180 
q022 4 c3186 c3187 c3194 c3197 
q023 3 c3176 c3196 c3174 
q024 3 c3176 c3196 c3180 
q025 3 c3176 c3196 c3197 
q026 5 c3369 c3402 c3404 c3405 c3416 
q027 5 c3369 c3402 c3404 c3405 c3407 
q028 5 c3369 c3402 c3404 c3405 c3409 
q029 5 c3369 c3402 c3404 c3405 c3410 
q030 5 c3369 c3402 c3404 c3405 c3471 
q031 5 c3369 c3402 c3404 c3405 c3476 
q032 5 c3369 c3402 c3404 c3405 c3477 
q033 5 c3369 c3402 c3404 c3405 c3623 
q034 6 c3398 c3413 c3416 c3407 c3409 c3410 
q035 5 c3398 c3413 c3471 c3476 c3477 
q036 5 c3418 c3419 c3422 c3598 c3423 
q037 5 c3418 c3419 c3422 c3598 c3424 
q038 5 c3536 c3420 c3428 c3619 c3599 
q039 4 c3225 c3512 c3233 c3214 
q040 4 c3210 c3211 c3215 c3220 
q041 3 c3207 c3217 c3218 
q042 4 c3362 c3345 c3360 c3339 
q043 4 c3362 c3345 c3360 c3351 
q044 5 c3362 c3345 c3354 c3360 c3342 
q045 5 c3362 c3345 c3354 c3360 c3332 
q046 4 c3362 c3345 c3354 c3339 
q047 4 c3362 c3345 c3354 c3351 
q048 5 c3362 c3354 c3352 c3348 c3340 
q049 3 c3343 c3347 c3351 
q050 3 c3343 c3347 c3339 
q051 2 c3364 c3332 
q052 2 c3364 c3342 
q053 2 c3347 c3339 
q054 2 c3347 c3351 
q055 3 c3347 c3364 c3340 
q056 4 c3225 c3226 c3233 c3512 
q057 5 c3230 c3231 c3497 c3227 c3249 
q058 4 c3230 c3231 c3497 c3220 
q059 5 c3230 c3231 c3497 c3483 c3249 
q060 4 c3242 c3229 c3240 c3218 
q061 3 c3242 c3240 c3243 
q063 6 c3321 c3324 c3336 c3494 c3334 c3339 
q064 6 c3321 c3324 c3336 c3494 c3332 c3333 
q065 1 c3330 
q066 2 c3330 c3348 
q067 4 c3251 c3255 c3256 c3559 
q068 5 c3262 c3263 c3483 c3230 c3533 
q069 7 c3608 c3295 c3301 c3419 c3313 c3317 c3316 
q070 5 c3290 c3343 c3299 c3611 c3295 
q071 3 c3290 c3343 c3611 
q072 7 c3290 c3419 c3477 c3309 c3310 c3612 c3611 
q073 5 c3290 c3316 c3315 c3611 c3317 
q074 4 c3291 c3542 c3290 c3300 
q075 5 c3291 c3542 c3290 c3303 c3240 
q076 5 c3291 c3542 c3290 c3312 c3313 
q077 5 c3291 c3542 c3290 c3319 c3317 
q078 3 c3369 c3375 c3370 
q079 2 c3369 c3375 
q080 3 c3369 c3375 c3384 
q081 3 c3369 c3375 c3394 
q082 3 c3369 c3375 c3391 
q083 3 c3369 c3375 c3395 
q084 5 c3369 c3375 c3373 c3617 c3370 
q085 4 c3369 c3375 c3373 c3617 
q086 5 c3369 c3375 c3373 c3617 c3384 
q087 5 c3369 c3375 c3373 c3617 c3394 
q088 5 c3369 c3375 c3373 c3617 c3391 
q089 5 c3369 c3375 c3373 c3617 c3395 
q090 1 c3370 
q091 2 c3422 c3536 
q092 1 c3384 
q093 1 c3394 
q094 1 c3391 
q095 1 c3395 
q096 2 c3422 c3370 
q097 2 c3422 c3374 
q098 2 c3422 c3384 
q099 2 c3422 c3394 
q100 2 c3422 c3391 
q101 2 c3422 c3395 

UNAVAILABILITY_CONSTRAINTS:
c1597 0 0
c1597 1 0
c1597 2 0
c1597 3 0
c1597 3 1
c1597 3 2
c1597 3 3
c1597 3 4
c1597 4 0
c1597 4 1
c1597 4 2
c1597 4 3
c1597 4 4
c1625 0 0
c1625 0 1
c1625 0 2
c1625 0 3
c1625 0 4
c1625 1 0
c1625 1 1
c1625 2 0
c1711 0 0
c1711 0 1
c1711 0 2
c1711 0 3
c1711 0 4
c1711 1 0
c1711 1 1
c1713 0 0
c1713 0 1
c1713 0 2
c1713 0 3
c1713 0 4
c1713 4 3
c1713 4 4
c3229 0 0
c3229 0 1
c3229 4 0
c3229 4 1
c3229 4 2
c3229 4 3
c3229 4 4
c1846 0 4
c1846 1 4
c1846 2 0
c1846 2 4
c1846 3 0
c1846 3 4
c1846 4 0
c1846 4 4
c3172 0 0
c3172 0 4
c3172 1 0
c3172 1 4
c3172 2 0
c3172 2 4
c3172 3 0
c3172 4 0
c3174 0 0
c3174 0 1
c3174 0 2
c3174 0 3
c3174 0 4
c3174 1 0
c3174 1 1
c3174 1 2
c3174 1 3
c3174 1 4
c3174 4 0
c3174 4 1
c3174 4 2
c3174 4 3
c3174 4 4
c3175 0 4
c3175 1 4
c3175 2 3
c3175 2 4
c3175 3 3
c3175 3 4
c3175 4 3
c3175 4 4
c3176 0 0
c3176 0 4
c3176 1 0
c3176 2 0
c3176 3 0
c3176 3 4
c3176 4 0
c3176 4 4
c3180 0 0
c3180 0 1
c3180 0 2
c3180 4 0
c3180 4 1
c3180 4 2
c3180 4 3
c3180 4 4
c3186 3 3
c3186 3 4
c3186 4 2
c3186 4 3
c3186 4 4
c3187 0 4
c3187 1 4
c3187 2 4
c3187 3 1
c3187 3 4
c3187 4 3
c3187 4 4
c3194 0 4
c3194 1 4
c3194 4 4
c3196 0 4
c3196 1 4
c3196 2 0
c3196 2 1
c3196 2 2
c3196 2 3
c3196 2 4
c3196 4 4
c3198 0 2
c3198 1 2
c3198 2 2
c3198 3 2
c3198 4 2
c3210 0 0
c3210 0 1
c3210 0 2
c3210 0 3
c3210 0 4
c3210 2 0
c3210 2 1
c3210 2 2
c3210 4 2
c3210 4 3
c3210 4 4
c3211 0 0
c3211 0 1
c3211 0 2
c3211 0 3
c3211 0 4
c3211 4 2
c3211 4 3
c3211 4 4
c3214 0 0
c3214 0 1
c3214 0 2
c3214 0 3
c3214 0 4
c3214 1 0
c3214 2 0
c3214 4 0
c3215 0 0
c3215 0 2
c3215 1 2
c3215 2 2
c3215 3 2
c3215 3 3
c3215 3 4
c3215 4 2
c3217 0 0
c3217 0 1
c3217 0 2
c3217 0 3
c3217 0 4
c3217 1 0
c3217 4 3
c3217 4 4
c3218 1 0
c3218 1 1
c3218 1 2
c3218 3 0
c3218 3 1
c3218 3 2
c3218 3 3
c3218 3 4
c3220 0 0
c3220 0 4
c3220 1 0
c3220 1 3
c3220 1 4
c3220 2 0
c3220 2 3
c3220 2 4
c3220 3 0
c3220 3 4
c3220 4 0
c3220 4 4
c3225 0 2
c3225 1 2
c3225 1 4
c3225 2 2
c3225 3 2
c3225 3 4
c3225 4 2
c3225 4 4
c3226 0 0
c3226 0 1
c3226 0 2
c3226 0 3
c3226 0 4
c3226 1 0
c3226 1 4
c3226 2 0
c3226 2 4
c3226 3 0
c3226 3 1
c3226 3 2
c3226 3 3
c3226 3 4
c3226 4 0
c3226 4 4
c3227 0 0
c3227 0 4
c3227 1 0
c3227 1 4
c3227 2 0
c3227 2 4
c3227 3 0
c3227 3 4
c3227 4 0
c3227 4 4
c3230 0 0
c3230 0 1
c3230 0 2
c3230 0 3
c3230 0 4
c3230 3 0
c3230 3 1
c3230 3 2
c3230 3 3
c3230 3 4
c3233 0 0
c3233 0 1
c3233 0 2
c3233 0 3
c3233 0 4
c3233 1 0
c3233 2 0
c3233 3 0
c3233 4 0
c3233 4 1
c3233 4 2
c3233 4 3
c3233 4 4
c3240 1 2
c3240 1 4
c3240 2 2
c3240 2 4
c3240 3 3
c3240 3 4
c3240 4 2
c3240 4 4
c3242 3 2
c3242 3 3
c3242 3 4
c3242 4 0
c3242 4 1
c3242 4 2
c3242 4 3
c3242 4 4
c3243 0 0
c3243 0 1
c3243 0 2
c3243 0 3
c3243 0 4
c3243 1 2
c3243 2 2
c3243 3 2
c3243 4 0
c3243 4 1
c3243 4 2
c3243 4 3
c3243 4 4
c3249 0 0
c3249 0 1
c3249 0 2
c3249 0 3
c3249 0 4
c3249 1 0
c3249 1 1
c3249 1 2
c3251 2 2
c3251 3 2
c3251 4 2
c3255 3 2
c3255 3 3
c3255 3 4
c3255 4 0
c3255 4 1
c3255 4 2
c3255 4 3
c3255 4 4
c3262 1 4
c3262 4 0
c3262 4 1
c3262 4 2
c3262 4 3
c3262 4 4
c3263 3 2
c3263 3 3
c3263 3 4
c3263 4 0
c3263 4 1
c3263 4 2
c3263 4 3
c3263 4 4
c3290 0 3
c3290 0 4
c3290 1 3
c3290 1 4
c3290 2 3
c3290 2 4
c3290 4 3
c3290 4 4
c3291 0 0
c3291 0 1
c3291 0 2
c3291 1 0
c3291 2 0
c3291 3 0
c3291 4 0
c3295 0 0
c3295 0 1
c3295 0 2
c3295 4 0
c3295 4 1
c3295 4 2
c3295 4 3
c3295 4 4
c3299 0 0
c3299 0 1
c3299 0 4
c3299 1 2
c3299 2 2
c3299 3 4
c3299 4 3
c3299 4 4
c3300 0 0
c3300 0 1
c3300 0 4
c3300 1 2
c3300 2 2
c3300 3 4
c3300 4 3
c3300 4 4
c3301 0 2
c3301 1 2
c3301 2 2
c3301 3 2
c3301 4 2
c3303 0 0
c3303 0 1
c3303 0 2
c3303 4 0
c3303 4 1
c3303 4 2
c3303 4 3
c3303 4 4
c3309 0 0
c3309 0 2
c3309 1 0
c3309 1 2
c3309 1 3
c3309 2 0
c3309 3 0
c3309 4 0
c3310 4 0
c3310 4 1
c3310 4 2
c3310 4 3
c3310 4 4
c3312 0 0
c3312 0 1
c3312 0 2
c3312 3 3
c3312 3 4
c3312 4 2
c3312 4 3
c3312 4 4
c3313 0 0
c3313 0 1
c3313 1 0
c3313 1 1
c3313 2 0
c3313 2 1
c3313 3 0
c3313 4 0
c3315 3 2
c3315 3 3
c3315 3 4
c3315 4 0
c3315 4 1
c3315 4 2
c3315 4 3
c3315 4 4
c3316 0 2
c3316 1 2
c3316 2 2
c3316 3 2
c3316 4 2
c3317 0 0
c3317 0 1
c3317 0 2
c3317 0 3
c3317 4 1
c3317 4 2
c3317 4 3
c3317 4 4
c3319 0 0
c3319 0 1
c3319 0 2
c3319 0 3
c3319 4 1
c3319 4 2
c3319 4 3
c3319 4 4
c3321 3 2
c3321 3 3
c3321 3 4
c3321 4 0
c3321 4 1
c3321 4 2
c3321 4 3
c3321 4 4
c3324 0 4
c3324 1 4
c3324 2 4
c3324 3 1
c3324 3 4
c3324 4 3
c3324 4 4
c3332 1 0
c3332 1 1
c3332 1 2
c3332 3 0
c3332 3 1
c3332 3 2
c3332 3 3
c3332 3 4
c3333 0 4
c3333 1 4
c3333 2 4
c3333 3 1
c3333 3 4
c3333 4 3
c3333 4 4
c3334 0 0
c3334 0 1
c3334 0 2
c3334 1 0
c3334 2 0
c3334 3 0
c3334 4 0
c3336 0 0
c3336 0 1
c3336 0 2
c3336 0 3
c3336 0 4
c3339 0 0
c3339 0 1
c3339 0 2
c3339 0 3
c3339 0 4
c3339 1 0
c3339 1 1
c3339 1 2
c3345 0 0
c3345 0 1
c3345 0 2
c3345 0 3
c3345 0 4
c3345 1 0
c3345 2 0
c3345 4 0
c3347 0 0
c3347 1 0
c3347 2 0
c3347 4 0
c3347 4 1
c3347 4 2
c3347 4 3
c3347 4 4
c3348 0 0
c3348 4 0
c3348 4 1
c3348 4 2
c3348 4 3
c3348 4 4
c3362 0 0
c3362 0 1
c3362 0 2
c3362 4 0
c3362 4 1
c3362 4 2
c3362 4 3
c3362 4 4
c3360 1 2
c3360 1 3
c3360 1 4
c3360 2 0
c3360 2 1
c3360 2 2
c3360 2 3
c3360 2 4
c3364 0 0
c3364 4 0
c3364 4 1
c3364 4 2
c3364 4 3
c3364 4 4
c3369 0 1
c3369 0 2
c3369 1 1
c3369 1 2
c3369 2 1
c3369 2 2
c3369 3 2
c3369 4 2
c3373 0 0
c3373 1 0
c3373 2 0
c3373 3 0
c3373 4 0
c3373 4 1
c3373 4 2
c3373 4 3
c3373 4 4
c3374 0 2
c3374 0 4
c3374 1 2
c3374 1 4
c3374 2 4
c3374 3 4
c3374 4 3
c3374 4 4
c3375 0 2
c3375 0 4
c3375 1 2
c3375 1 4
c3375 2 4
c3375 3 4
c3375 4 3
c3375 4 4
c3384 0 0
c3384 0 1
c3384 0 2
c3384 0 3
c3384 0 4
c3384 4 2
c3384 4 3
c3384 4 4
c3391 0 0
c3391 0 1
c3391 0 3
c3391 0 4
c3391 4 0
c3391 4 1
c3391 4 3
c3391 4 4
c3404 0 3
c3404 0 4
c3404 1 3
c3404 1 4
c3404 2 3
c3404 2 4
c3404 3 3
c3404 3 4
c3404 4 3
c3404 4 4
c3405 0 0
c3405 0 1
c3405 1 0
c3405 1 1
c3405 2 0
c3405 2 1
c3405 4 0
c3405 4 1
c3407 0 2
c3407 1 2
c3407 2 2
c3407 3 2
c3407 4 2
c3413 0 0
c3413 0 1
c3413 0 2
c3413 0 3
c3413 0 4
c3413 1 0
c3413 1 1
c3413 1 2
c3419 4 0
c3419 4 1
c3419 4 2
c3419 4 3
c3419 4 4
c3422 1 2
c3422 1 3
c3422 1 4
c3422 2 3
c3422 2 4
c3422 3 2
c3422 3 3
c3422 3 4
c3422 4 0
c3422 4 1
c3423 0 0
c3423 0 1
c3423 0 2
c3423 0 3
c3423 0 4
c3423 1 0
c3423 1 4
c3423 2 0
c3423 2 4
c3423 3 0
c3423 3 1
c3423 3 2
c3423 3 3
c3423 3 4
c3423 4 0
c3423 4 4
c3424 2 2
c3424 3 2
c3424 4 2
c3436 0 0
c3436 0 1
c3436 0 2
c3436 0 3
c3436 0 4
c3436 1 0
c3436 1 1
c3436 1 2
c3438 3 0
c3438 3 1
c3438 4 0
c3438 4 1
c3456 0 0
c3456 0 1
c3456 3 3
c3456 3 4
c3456 4 0
c3456 4 1
c3456 4 2
c3456 4 3
c3456 4 4
c3458 0 0
c3458 0 1
c3458 1 0
c3458 1 1
c3458 1 2
c3458 2 3
c3458 2 4
c3458 4 0
c3458 4 1
c3458 4 2
c3464 0 0
c3464 0 1
c3464 0 2
c3464 1 0
c3464 1 1
c3464 1 2
c3464 1 3
c3464 1 4
c3464 4 0
c3464 4 2
c3467 0 2
c3467 1 0
c3467 1 2
c3467 2 2
c3467 2 3
c3467 3 2
c3467 4 0
c3471 3 3
c3471 3 4
c3471 4 0
c3471 4 1
c3471 4 2
c3471 4 3
c3471 4 4
c3476 0 0
c3477 4 3
c3477 4 4
c3483 0 0
c3483 0 1
c3483 0 2
c3483 0 3
c3483 0 4
c3483 3 0
c3483 3 1
c3483 3 2
c3483 3 3
c3483 3 4
c3497 0 0
c3497 0 1
c3497 0 2
c3497 0 3
c3497 0 4
c3512 0 2
c3512 0 3
c3512 1 2
c3512 2 2
c3512 3 2
c3512 4 1
c3512 4 2
c3512 4 3
c3533 0 0
c3533 0 4
c3533 1 4
c3533 2 0
c3533 2 4
c3533 3 4
c3533 4 0
c3533 4 4
c3536 0 2
c3536 0 3
c3536 0 4
c3536 1 2
c3536 1 3
c3536 1 4
c3536 2 2
c3536 2 3
c3536 2 4
c3536 3 2
c3536 3 3
c3536 3 4
c3536 4 0
c3536 4 1
c3536 4 2
c3536 4 3
c3536 4 4
c3542 0 0
c3542 0 1
c3542 0 2
c3542 1 0
c3542 2 0
c3542 3 0
c3542 4 0
c3558 0 0
c3558 1 0
c3558 2 0
c3558 4 0
c3558 4 1
c3558 4 2
c3558 4 3
c3558 4 4
c3559 0 3
c3559 0 4
c3559 1 3
c3559 1 4
c3559 2 3
c3559 2 4
c3559 3 3
c3559 3 4
c3559 4 3
c3559 4 4
c3598 0 0
c3598 0 2
c3598 1 0
c3598 1 2
c3598 1 3
c3598 2 0
c3598 3 0
c3598 4 0
c3599 0 0
c3599 0 1
c3599 0 2
c3599 1 0
c3599 2 0
c3599 3 0
c3599 4 3
c3599 4 4
c3600 0 0
c3600 0 1
c3600 0 2
c3600 0 3
c3600 0 4
c3600 2 4
c3600 3 4
c3600 4 4
c3608 0 0
c3608 0 1
c3608 0 2
c3608 0 3
c3608 0 4
c3608 4 2
c3608 4 3
c3608 4 4
c3617 0 0
c3617 0 2
c3617 1 2
c3617 2 0
c3617 2 2
c3617 3 2
c3617 4 0
c3617 4 2
c3619 1 4
c3619 4 0
c3619 4 1
c3619 4 2
c3619 4 3
c3619 4 4
c3620 0 4
c3620 2 0
c3620 2 1
c3620 2 2
c3620 2 3
c3620 2 4
c3620 3 4
c3620 4 4
c3630 2 1
c3630 3 0
c3630 3 1
c3630 3 2
c3630 3 3
c3630 3 4
c3630 4 0
c3630 4 1
c3630 4 2
c3630 4 3
c3630 4 4

ROOM_CONSTRAINTS:
c1597 Er1
c1597 DS1
c1602 Er1
c1602 DS1
c1604 Er1
c1604 DS1
c1625 Er1
c1625 DS1
c1642 Er1
c1642 DS1
c1711 Er1
c1711 DS1
c1713 Er1
c1713 DS1
c1720 Er1
c1720 DS1
c3229 Er1
c3229 DS1
c1846 Er1
c1846 DS1
c3172 Er1
c3172 DS1
c3174 Er1
c3174 DS1
c3175 Er1
c3175 DS1
c3176 Er1
c3176 DS1
c3180 Er1
c3180 DS1
c3186 Er1
c3186 DS1
c3187 Er1
c3187 DS1
c3194 Er1
c3194 DS1
c3196 Er1
c3196 DS1
c3197 Er1
c3197 DS1
c3198 Er1
c3198 DS1
c3207 Er1
c3207 DS1
c3210 Er1
c3210 DS1
c3211 Er1
c3211 DS1
c3214 Er1
c3214 DS1
c3215 Er1
c3215 DS1
c3217 Er1
c3217 DS1
c3218 Er1
c3218 DS1
c3220 Er1
c3220 DS1
c3225 Er1
c3225 DS1
c3226 Er1
c3226 DS1
c3227 Er1
c3227 DS1
c3230 Er1
c3230 DS1
c3231 Er1
c3231 DS1
c3233 Er1
c3233 DS1
c3240 Er1
c3240 DS1
c3242 Er1
c3242 DS1
c3243 Er1
c3243 DS1
c3249 Er1
c3249 DS1
c3251 Er1
c3251 DS1
c3255 Er1
c3255 DS1
c3256 Er1
c3256 DS1
c3262 Er1
c3262 DS1
c3263 Er1
c3263 DS1
c3290 Er1
c3290 DS1
c3291 Er1
c3291 DS1
c3295 Er1
c3295 DS1
c3299 Er1
c3299 DS1
c3300 Er1
c3300 DS1
c3301 Er1
c3301 DS1
c3303 Er1
c3303 DS1
c3309 Er1
c3309 DS1
c3310 Er1
c3310 DS1
c3312 Er1
c3312 DS1
c3313 Er1
c3313 DS1
c3315 Er1
c3315 DS1
c3316 Er1
c3316 DS1
c3317 Er1
c3317 DS1
c3319 Er1
c3319 DS1
c3321 Er1
c3321 DS1
c3324 Er1
c3324 DS1
c3330 Er1
c3330 DS1
c3332 Er1
c3332 DS1
c3333 Er1
c3333 DS1
c3334 Er1
c3334 DS1
c3336 Er1
c3336 DS1
c3339 Er1
c3339 DS1
c3340 Er1
c3340 DS1
c3342 Er1
c3342 DS1
c3343 Er1
c3343 DS1
c3345 Er1
c3345 DS1
c3347 Er1
c3347 DS1
c3348 Er1
c3348 DS1
c3351 Er1
c3351 DS1
c3352 Er1
c3352 DS1
c3354 Er1
c3354 DS1
c3362 Er1
c3362 DS1
c3360 Er1
c3360 DS1
c3364 Er1
c3364 DS1
c3369 Er1
c3369 DS1
c3370 Er1
c3370 DS1
c3373 Er1
c3373 DS1
c3374 Er1
c3374 DS1
c3375 Er1
c3375 DS1
c3384 Er1
c3384 DS1
c3391 Er1
c3391 DS1
c3394 Er1
c3394 DS1
c3395 Er1
c3395 DS1
c3398 Er1
c3398 DS1
c3402 Er1
c3402 DS1
c3404 Er1
c3404 DS1
c3405 Er1
c3405 DS1
c3407 Er1
c3407 DS1
c3409 Er1
c3409 DS1
c3410 Er1
c3410 DS1
c3413 Er1
c3413 DS1
c3416 Er1
c3416 DS1
c3418 Er1
c3418 DS1
c3419 Er1
c3419 DS1
c3420 Er1
c3420 DS1
c3422 Er1
c3422 DS1
c3423 Er1
c3423 DS1
c3424 Er1
c3424 DS1
c3428 Er1
c3428 DS1
c3434 Er1
c3434 DS1
c3436 Er1
c3436 DS1
c3438 Er1
c3438 DS1
c3440 Er1
c3440 DS1
c3447 Er1
c3447 DS1
c3456 Er1
c3456 DS1
c3458 Er1
c3458 DS1
c3460 Er1
c3460 DS1
c3462 Er1
c3462 DS1
c3464 Er1
c3464 DS1
c3467 Er1
c3467 DS1
c3471 Er1
c3471 DS1
c3476 Er1
c3476 DS1
c3477 Er1
c3477 DS1
c3483 Er1
c3483 DS1
c3494 Er1
c3494 DS1
c3497 Er1
c3497 DS1
c3500 Er1
c3500 DS1
c3512 Er1
c3512 DS1
c3533 Er1
c3533 DS1
c3536 Er1
c3536 DS1
c3542 Er1
c3542 DS1
c3558 Er1
c3558 DS1
c3559 Er1
c3559 DS1
c3598 Er1
c3598 DS1
c3599 Er1
c3599 DS1
c3600 Er1
c3600 DS1
c3608 Er1
c3608 DS1
c3611 Er1
c3611 DS1
c3612 Er1
c3612 DS1
c3617 Er1
c3617 DS1
c3619 Er1
c3619 DS1
c3620 Er1
c3620 DS1
c3621 Er1
c3621 DS1
c3623 Er1
c3623 DS1
c3630 Er1
c3630 DS1

END.
